70
1 0 17
2 0 19
2 1 9
3 1 2
3 2 10
4 0 2
4 2 10
5 0 9
5 1 1
5 2 5
5 3 18
5 4 3
6 0 9
6 1 20
6 5 2
7 1 18
7 2 1
7 3 18
7 4 4
7 5 13
8 0 17
8 3 14
8 5 12
8 6 10
8 7 14
9 0 16
9 2 4
9 4 19
9 5 14
9 6 5
9 7 20
9 8 3
10 0 15
10 1 14
10 2 10
10 3 12
10 4 20
10 6 2
10 7 18
10 8 14
10 9 2
11 1 6
11 2 20
11 3 13
11 4 19
11 5 6
11 6 3
11 7 6
11 8 6
11 9 8
11 10 6
12 0 5
12 1 7
12 2 10
12 3 5
12 5 7
12 6 19
12 8 16
12 9 3
12 10 7
12 11 15
13 2 1
13 3 8
13 4 4
13 5 15
13 6 11
13 7 3
13 8 11
13 9 3
13 10 12
13 11 16
13 12 5
14 0 14
14 1 9
14 3 8
14 5 20
14 7 16
14 8 16
14 9 6
14 10 14
14 12 14
14 13 10
15 0 13
15 2 13
15 3 10
15 4 15
15 5 19
15 6 15
15 7 11
15 8 9
15 9 13
15 10 19
15 12 11
15 13 16
15 14 18
16 0 3
16 1 1
16 2 8
16 3 1
16 4 17
16 5 10
16 6 19
16 7 19
16 9 10
16 13 7
16 14 19
16 15 6
17 0 10
17 1 14
17 2 17
17 4 17
17 5 14
17 6 3
17 7 20
17 8 8
17 9 7
17 10 9
17 11 4
17 12 1
17 13 11
17 14 11
17 15 19
17 16 4
18 0 4
18 1 5
18 2 1
18 3 19
18 4 9
18 6 11
18 8 15
18 9 16
18 10 5
18 11 10
18 14 2
18 15 4
18 17 4
19 0 6
19 1 18
19 4 7
19 6 8
19 7 4
19 9 12
19 10 13
19 11 15
19 12 11
19 13 15
19 14 19
19 16 19
19 17 12
20 0 15
20 1 7
20 3 1
20 4 17
20 5 10
20 6 6
20 7 20
20 8 14
20 9 2
20 11 9
20 12 9
20 13 17
20 14 15
20 15 15
20 16 18
20 18 15
20 19 9
21 0 1
21 1 5
21 2 9
21 3 16
21 4 10
21 5 8
21 6 17
21 7 10
21 9 13
21 10 13
21 11 13
21 12 9
21 13 5
21 14 16
21 15 5
21 16 13
21 18 11
21 19 9
21 20 1
22 1 7
22 2 18
22 3 3
22 4 12
22 6 3
22 7 8
22 8 19
22 9 1
22 10 18
22 11 19
22 12 6
22 13 8
22 14 6
22 15 7
22 16 13
22 17 6
22 19 16
22 20 5
23 0 18
23 1 18
23 2 1
23 3 2
23 5 4
23 7 9
23 8 12
23 9 12
23 10 14
23 11 15
23 12 6
23 14 19
23 15 12
23 17 16
23 18 11
23 19 17
23 20 14
23 21 18
23 22 12
24 0 8
24 1 9
24 2 4
24 3 6
24 4 14
24 5 12
24 6 20
24 7 11
24 8 13
24 9 2
24 10 9
24 12 9
24 14 10
24 15 9
24 16 4
24 18 9
24 19 10
24 20 12
24 21 6
24 22 1
24 23 8
25 0 5
25 1 7
25 2 15
25 3 14
25 4 2
25 5 13
25 6 12
25 8 16
25 9 12
25 10 13
25 11 2
25 12 14
25 13 12
25 14 14
25 15 15
25 16 14
25 17 6
25 18 9
25 19 2
25 20 4
25 21 10
25 22 5
25 23 6
25 24 11
26 0 18
26 1 9
26 2 5
26 3 19
26 7 9
26 8 12
26 9 9
26 10 20
26 11 6
26 12 8
26 13 4
26 14 2
26 15 12
26 18 14
26 21 12
26 23 17
26 24 14
26 25 11
27 3 19
27 5 8
27 6 17
27 7 11
27 8 2
27 9 7
27 12 4
27 13 4
27 14 2
27 15 1
27 17 5
27 18 3
27 20 18
27 21 11
27 22 5
27 23 4
27 24 13
27 26 3
28 0 19
28 2 17
28 3 17
28 4 16
28 5 13
28 6 5
28 7 5
28 9 13
28 10 20
28 11 9
28 12 11
28 13 18
28 14 17
28 15 18
28 16 5
28 17 20
28 18 9
28 19 13
28 21 1
28 22 1
28 23 11
28 24 18
28 25 6
28 26 20
29 0 2
29 1 1
29 2 7
29 3 6
29 4 14
29 5 7
29 7 11
29 8 8
29 9 20
29 10 11
29 11 19
29 12 10
29 13 17
29 14 19
29 16 10
29 17 6
29 18 3
29 19 5
29 21 17
29 22 1
29 24 19
29 25 19
29 26 18
29 27 17
29 28 1
30 1 5
30 2 6
30 3 20
30 4 20
30 6 8
30 7 7
30 8 17
30 9 13
30 10 3
30 11 4
30 12 16
30 13 6
30 14 1
30 15 1
30 16 18
30 17 13
30 18 14
30 19 5
30 20 18
30 24 15
30 25 1
30 26 8
30 27 5
30 28 11
30 29 20
31 0 9
31 1 5
31 2 20
31 3 13
31 5 8
31 7 9
31 8 13
31 9 10
31 10 1
31 11 12
31 12 18
31 13 1
31 14 1
31 16 12
31 17 6
31 18 3
31 19 15
31 21 14
31 22 13
31 24 11
31 25 8
31 26 6
31 28 2
31 30 10
32 0 19
32 1 14
32 2 12
32 3 8
32 4 5
32 5 19
32 6 12
32 7 10
32 8 3
32 12 6
32 13 11
32 14 1
32 15 17
32 16 14
32 17 4
32 18 14
32 19 20
32 20 6
32 21 14
32 22 2
32 24 11
32 25 18
32 26 11
32 27 3
32 28 16
32 30 10
32 31 19
33 1 10
33 3 11
33 4 12
33 5 5
33 6 12
33 8 20
33 9 11
33 10 14
33 11 13
33 12 1
33 13 15
33 14 13
33 15 1
33 16 6
33 17 16
33 19 19
33 20 12
33 21 11
33 22 12
33 23 18
33 24 17
33 25 9
33 26 13
33 27 15
33 28 11
33 29 5
33 30 2
33 31 19
33 32 17
34 0 10
34 1 20
34 3 16
34 4 15
34 5 12
34 7 11
34 8 15
34 9 3
34 10 5
34 11 6
34 12 4
34 13 16
34 15 1
34 16 13
34 17 8
34 18 19
34 19 13
34 22 17
34 23 15
34 25 2
34 26 12
34 27 18
34 28 20
34 29 3
34 30 8
34 31 14
34 33 14
35 1 1
35 2 17
35 3 6
35 4 9
35 5 15
35 6 16
35 8 10
35 9 2
35 11 18
35 12 12
35 14 9
35 15 11
35 16 19
35 17 12
35 18 6
35 20 1
35 21 8
35 22 10
35 24 14
35 25 2
35 27 11
35 28 18
35 29 17
35 30 3
35 32 13
35 33 20
36 0 13
36 3 14
36 4 12
36 5 1
36 6 15
36 7 18
36 8 8
36 9 3
36 10 7
36 11 16
36 12 16
36 13 20
36 14 18
36 15 11
36 16 4
36 17 9
36 18 3
36 19 18
36 20 3
36 21 18
36 22 2
36 23 20
36 24 20
36 26 9
36 27 1
36 29 3
36 30 13
36 31 12
36 32 5
36 33 4
37 0 9
37 1 19
37 2 4
37 3 14
37 4 18
37 5 4
37 6 4
37 7 20
37 8 20
37 9 5
37 10 13
37 11 12
37 12 20
37 13 13
37 14 7
37 15 9
37 16 7
37 17 2
37 18 13
37 19 16
37 20 8
37 21 16
37 22 15
37 23 15
37 24 17
37 25 3
37 28 5
37 29 6
37 31 3
37 32 20
37 33 4
37 34 4
37 36 2
38 0 11
38 1 12
38 2 11
38 3 19
38 4 20
38 5 20
38 7 11
38 8 10
38 9 15
38 10 18
38 11 18
38 12 20
38 13 7
38 14 10
38 15 3
38 17 4
38 18 1
38 19 7
38 21 16
38 22 12
38 23 6
38 24 1
38 25 11
38 26 16
38 27 11
38 28 20
38 29 10
38 30 7
38 31 13
38 32 20
38 33 5
38 34 4
38 35 16
38 36 1
38 37 14
39 1 11
39 2 2
39 3 6
39 4 11
39 5 20
39 6 18
39 8 13
39 9 2
39 10 18
39 11 7
39 12 16
39 13 19
39 16 3
39 17 13
39 18 7
39 19 9
39 20 13
39 21 16
39 22 5
39 23 7
39 24 16
39 25 10
39 26 5
39 27 11
39 28 3
39 29 7
39 30 16
39 31 12
39 33 19
39 36 20
39 37 18
39 38 7
40 0 14
40 1 2
40 3 1
40 4 18
40 5 16
40 6 11
40 8 11
40 9 20
40 10 16
40 11 4
40 14 11
40 15 11
40 16 5
40 17 18
40 18 16
40 19 14
40 20 5
40 23 19
40 24 9
40 25 14
40 26 12
40 27 18
40 28 5
40 29 19
40 30 4
40 31 2
40 33 7
40 34 11
40 35 16
40 36 3
40 37 13
40 39 18
41 0 17
41 1 7
41 3 3
41 4 4
41 5 10
41 6 11
41 9 14
41 10 1
41 11 1
41 12 3
41 13 17
41 14 6
41 15 2
41 16 9
41 18 6
41 19 16
41 20 14
41 21 2
41 22 4
41 23 20
41 25 6
41 26 16
41 27 10
41 29 13
41 30 18
41 31 20
41 32 5
41 33 13
41 34 13
41 35 9
41 37 10
41 38 1
41 39 4
41 40 8
42 1 5
42 2 17
42 4 7
42 5 4
42 6 1
42 7 19
42 9 12
42 10 8
42 11 12
42 12 10
42 16 3
42 18 5
42 19 6
42 20 12
42 21 7
42 23 6
42 25 6
42 26 11
42 28 17
42 29 8
42 31 1
42 32 18
42 33 2
42 34 11
42 35 19
42 36 15
42 37 17
42 38 20
42 39 1
42 40 9
42 41 2
43 0 12
43 1 6
43 2 6
43 3 9
43 4 10
43 5 20
43 6 2
43 7 8
43 8 11
43 9 18
43 10 16
43 11 14
43 12 15
43 13 13
43 14 7
43 15 3
43 16 1
43 17 12
43 18 17
43 20 12
43 21 8
43 22 5
43 23 19
43 24 20
43 25 15
43 26 12
43 27 20
43 28 1
43 31 8
43 32 9
43 34 17
43 35 1
43 36 13
43 37 2
43 38 8
43 39 12
43 40 13
43 41 4
44 0 19
44 3 12
44 4 12
44 5 20
44 6 9
44 7 12
44 8 6
44 9 9
44 11 17
44 12 18
44 14 17
44 15 8
44 18 13
44 19 10
44 20 13
44 21 1
44 22 7
44 23 9
44 24 11
44 25 1
44 26 18
44 29 6
44 30 18
44 31 5
44 32 17
44 33 1
44 35 15
44 36 19
44 37 11
44 38 16
44 39 6
44 40 16
44 41 20
44 42 16
45 0 5
45 3 14
45 5 13
45 6 2
45 7 5
45 8 17
45 11 16
45 12 11
45 15 4
45 16 15
45 17 4
45 18 19
45 19 13
45 20 11
45 21 11
45 22 3
45 23 1
45 24 6
45 25 13
45 27 20
45 28 18
45 31 10
45 32 20
45 33 5
45 35 4
45 36 1
45 37 16
45 38 1
45 39 13
45 40 17
45 41 19
45 42 19
45 44 15
46 0 4
46 1 13
46 2 19
46 3 17
46 4 2
46 5 9
46 7 14
46 8 7
46 9 3
46 10 8
46 11 15
46 12 10
46 13 13
46 15 12
46 16 12
46 17 16
46 19 8
46 20 11
46 22 2
46 28 15
46 29 2
46 30 6
46 31 4
46 33 11
46 34 14
46 35 3
46 36 8
46 37 5
46 38 7
46 39 19
46 42 11
46 43 6
46 44 6
47 0 6
47 1 1
47 3 17
47 4 9
47 6 8
47 7 10
47 8 10
47 9 4
47 10 10
47 11 5
47 12 5
47 13 9
47 14 17
47 15 8
47 17 12
47 20 17
47 23 18
47 26 6
47 27 19
47 28 15
47 29 16
47 30 17
47 31 20
47 32 6
47 33 11
47 34 11
47 35 17
47 36 18
47 38 18
47 39 12
47 42 14
47 45 18
47 46 16
48 0 9
48 2 7
48 5 9
48 6 13
48 8 2
48 9 5
48 11 7
48 12 1
48 14 7
48 15 16
48 17 16
48 18 10
48 19 20
48 20 11
48 21 19
48 22 3
48 23 19
48 25 16
48 26 9
48 27 6
48 28 13
48 29 3
48 30 8
48 31 13
48 32 5
48 33 5
48 34 19
48 35 19
48 37 16
48 39 13
48 40 2
48 42 12
48 43 12
48 44 14
48 45 15
48 46 20
49 0 15
49 1 12
49 2 6
49 4 1
49 5 10
49 6 16
49 7 20
49 8 10
49 9 16
49 10 20
49 11 6
49 12 19
49 14 19
49 15 10
49 16 9
49 17 8
49 21 20
49 22 14
49 24 14
49 25 19
49 26 10
49 27 13
49 28 17
49 31 20
49 32 7
49 34 12
49 35 20
49 37 11
49 38 1
49 39 16
49 40 12
49 42 18
49 43 18
49 44 17
49 46 14
50 2 4
50 3 19
50 4 1
50 6 3
50 7 18
50 8 6
50 9 20
50 10 9
50 11 1
50 12 11
50 13 15
50 14 2
50 16 15
50 17 5
50 18 7
50 19 14
50 20 18
50 21 5
50 22 15
50 23 2
50 24 5
50 25 2
50 26 18
50 27 11
50 28 13
50 29 5
50 30 17
50 32 2
50 33 8
50 34 11
50 35 15
50 36 14
50 37 17
50 38 18
50 39 19
50 40 19
50 41 6
50 42 14
50 44 17
50 45 5
50 46 9
50 47 10
50 48 4
50 49 19
51 0 10
51 1 17
51 2 19
51 3 11
51 4 13
51 5 10
51 6 8
51 7 10
51 8 16
51 9 4
51 11 11
51 12 16
51 17 1
51 18 14
51 19 4
51 20 10
51 21 13
51 22 20
51 23 11
51 24 10
51 25 6
51 26 4
51 27 6
51 28 12
51 29 15
51 30 18
51 31 6
51 32 20
51 33 20
51 34 3
51 35 10
51 36 8
51 38 18
51 39 6
51 40 5
51 41 17
51 43 13
51 44 8
51 45 16
51 47 10
51 49 6
51 50 10
52 0 14
52 1 12
52 2 20
52 4 2
52 5 20
52 6 9
52 7 19
52 8 14
52 9 14
52 10 20
52 11 19
52 12 2
52 13 4
52 14 5
52 17 9
52 18 7
52 19 8
52 20 4
52 21 15
52 22 3
52 23 15
52 24 19
52 25 4
52 27 5
52 29 10
52 30 9
52 31 16
52 34 18
52 35 3
52 37 20
52 38 20
52 39 14
52 40 6
52 42 16
52 43 4
52 45 20
52 46 6
52 48 5
52 51 9
53 0 16
53 1 5
53 2 2
53 3 17
53 4 2
53 5 10
53 6 19
53 8 17
53 9 16
53 11 19
53 12 1
53 14 16
53 15 4
53 16 3
53 17 9
53 18 19
53 20 1
53 21 20
53 22 10
53 23 15
53 26 20
53 28 15
53 29 9
53 30 7
53 31 10
53 32 10
53 33 10
53 34 16
53 36 14
53 37 7
53 38 7
53 42 20
53 43 18
53 44 13
53 45 14
53 47 19
53 49 3
53 50 19
54 2 5
54 3 3
54 4 14
54 5 8
54 6 17
54 9 13
54 12 18
54 13 10
54 15 2
54 16 18
54 17 3
54 19 1
54 20 18
54 21 14
54 22 10
54 23 16
54 24 12
54 25 10
54 26 15
54 32 13
54 34 4
54 35 17
54 36 5
54 37 2
54 38 4
54 39 8
54 40 14
54 42 9
54 43 12
54 45 16
54 46 16
54 48 11
54 50 9
54 51 20
55 1 5
55 2 8
55 3 8
55 5 6
55 6 11
55 7 20
55 8 18
55 9 13
55 10 7
55 11 5
55 12 4
55 13 1
55 14 4
55 15 2
55 16 8
55 17 14
55 19 6
55 20 20
55 22 13
55 23 7
55 24 1
55 26 1
55 28 18
55 29 20
55 30 13
55 31 19
55 32 10
55 34 7
55 35 18
55 36 7
55 37 16
55 38 4
55 39 10
55 40 1
55 43 19
55 44 17
55 45 19
55 46 9
55 47 16
55 48 10
55 50 2
55 51 18
55 53 12
55 54 4
56 1 10
56 3 20
56 4 1
56 6 6
56 7 9
56 8 3
56 9 7
56 10 18
56 13 12
56 14 14
56 15 15
56 16 1
56 17 5
56 18 8
56 20 16
56 21 14
56 22 8
56 23 17
56 24 18
56 25 10
56 27 3
56 28 7
56 30 1
56 31 10
56 32 6
56 33 15
56 34 11
56 35 14
56 36 8
56 37 6
56 38 1
56 42 9
56 43 8
56 45 1
56 49 9
56 50 4
56 51 4
56 52 10
56 53 19
56 54 11
56 55 17
57 1 6
57 3 3
57 4 14
57 5 5
57 6 4
57 7 2
57 8 6
57 9 8
57 10 13
57 12 7
57 13 3
57 15 11
57 16 3
57 17 4
57 18 14
57 20 5
57 21 13
57 23 13
57 24 3
57 25 1
57 26 1
57 27 19
57 29 10
57 30 2
57 31 3
57 32 19
57 33 7
57 36 7
57 37 8
57 38 9
57 39 13
57 40 4
57 41 11
57 42 4
57 43 13
57 44 17
57 45 18
57 46 7
57 49 5
57 50 8
57 52 1
57 53 18
57 54 18
57 55 15
57 56 11
58 0 10
58 1 6
58 2 2
58 3 4
58 4 9
58 5 1
58 7 9
58 8 4
58 9 10
58 12 7
58 13 1
58 14 20
58 15 18
58 16 10
58 17 5
58 19 3
58 20 16
58 21 5
58 22 15
58 23 4
58 24 13
58 25 15
58 27 11
58 28 4
58 29 14
58 30 16
58 31 11
58 32 11
58 33 10
58 35 16
58 36 9
58 37 7
58 39 11
58 41 2
58 44 19
58 45 4
58 47 8
58 48 6
58 49 17
58 50 11
58 51 17
58 52 6
58 53 1
58 54 16
58 55 12
58 56 16
58 57 13
59 0 20
59 1 5
59 2 11
59 3 18
59 4 15
59 5 20
59 6 7
59 7 2
59 9 12
59 10 11
59 11 12
59 12 5
59 13 11
59 14 4
59 15 7
59 16 9
59 17 15
59 18 20
59 19 18
59 20 4
59 21 6
59 22 7
59 23 6
59 24 14
59 25 20
59 26 20
59 27 17
59 28 20
59 29 6
59 30 7
59 31 10
59 32 17
59 33 1
59 34 10
59 35 10
59 37 2
59 39 20
59 40 6
59 41 16
59 42 7
59 43 17
59 44 16
59 45 19
59 46 1
59 47 14
59 48 20
59 49 11
59 50 11
59 51 16
59 52 8
59 53 2
59 54 2
59 55 2
59 56 12
59 57 4
59 58 13
60 0 16
60 2 20
60 3 11
60 4 6
60 5 4
60 7 15
60 9 13
60 10 3
60 13 10
60 14 7
60 15 18
60 16 15
60 17 10
60 18 6
60 19 18
60 20 20
60 21 2
60 22 19
60 23 10
60 24 13
60 25 20
60 26 19
60 27 20
60 28 17
60 31 19
60 33 9
60 34 14
60 35 10
60 36 17
60 37 15
60 39 9
60 40 10
60 41 16
60 42 9
60 43 19
60 44 13
60 45 19
60 47 5
60 48 3
60 49 13
60 50 10
60 51 11
60 52 6
60 53 3
60 54 15
60 55 15
60 56 9
60 57 20
61 0 15
61 1 4
61 2 12
61 4 11
61 5 11
61 6 1
61 8 15
61 9 11
61 10 18
61 11 9
61 13 6
61 14 6
61 15 6
61 16 11
61 17 18
61 18 7
61 23 6
61 25 4
61 26 7
61 27 5
61 29 4
61 30 17
61 31 12
61 32 6
61 33 13
61 34 6
61 35 19
61 37 13
61 38 5
61 39 19
61 40 10
61 41 3
61 42 2
61 43 13
61 44 2
61 45 19
61 46 11
61 47 20
61 48 20
61 49 8
61 50 19
61 51 9
61 52 3
61 53 5
61 54 13
61 56 19
61 59 2
62 0 1
62 3 11
62 4 19
62 5 15
62 6 6
62 7 14
62 8 20
62 9 5
62 10 7
62 13 20
62 16 14
62 17 13
62 18 14
62 19 5
62 20 1
62 21 2
62 22 14
62 23 13
62 24 6
62 25 7
62 26 13
62 28 5
62 29 18
62 30 7
62 31 11
62 32 13
62 34 8
62 35 11
62 36 14
62 37 16
62 39 19
62 40 19
62 41 16
62 42 5
62 43 15
62 44 15
62 46 20
62 47 16
62 48 20
62 49 4
62 50 11
62 51 20
62 52 15
62 53 1
62 54 20
62 55 9
62 56 9
62 57 12
62 58 6
62 60 20
63 0 12
63 1 2
63 2 6
63 3 18
63 4 1
63 5 16
63 6 7
63 7 19
63 8 17
63 9 17
63 10 10
63 12 9
63 14 17
63 15 8
63 16 16
63 17 17
63 18 17
63 19 18
63 21 2
63 22 8
63 23 13
63 24 9
63 25 8
63 26 16
63 27 12
63 28 20
63 29 14
63 30 6
63 32 18
63 33 1
63 34 2
63 35 11
63 37 1
63 38 16
63 39 6
63 40 9
63 41 9
63 42 4
63 43 5
63 44 11
63 45 14
63 46 9
63 47 17
63 49 3
63 50 11
63 51 14
63 53 9
63 54 5
63 55 1
63 57 3
63 58 3
63 59 20
63 61 12
63 62 13
64 0 2
64 1 8
64 2 9
64 3 20
64 4 19
64 5 10
64 7 20
64 8 7
64 9 2
64 10 14
64 11 1
64 13 10
64 14 2
64 15 10
64 16 7
64 18 6
64 19 16
64 20 17
64 21 12
64 22 10
64 23 8
64 24 2
64 25 14
64 27 8
64 28 9
64 30 2
64 31 3
64 36 11
64 37 2
64 38 19
64 39 2
64 40 3
64 44 8
64 46 2
64 47 15
64 48 6
64 49 14
64 50 4
64 51 20
64 52 1
64 53 15
64 55 15
64 56 4
64 57 1
64 60 11
64 61 18
64 62 10
65 0 1
65 1 13
65 3 12
65 4 6
65 5 16
65 6 20
65 7 2
65 9 17
65 10 2
65 11 7
65 12 8
65 13 12
65 14 9
65 15 14
65 16 11
65 17 3
65 19 4
65 20 17
65 23 20
65 25 9
65 26 8
65 27 18
65 28 8
65 29 9
65 31 10
65 32 16
65 33 3
65 34 17
65 35 5
65 36 5
65 37 13
65 39 20
65 40 16
65 41 6
65 42 10
65 43 9
65 44 19
65 45 12
65 46 2
65 47 9
65 49 12
65 50 9
65 51 10
65 52 9
65 54 19
65 55 4
65 56 4
65 57 3
65 60 4
65 62 9
65 63 13
65 64 20
66 1 19
66 2 13
66 3 18
66 4 16
66 7 10
66 9 20
66 10 11
66 11 3
66 13 3
66 14 2
66 15 3
66 16 11
66 17 10
66 18 1
66 19 20
66 20 12
66 21 7
66 23 10
66 24 3
66 25 8
66 26 3
66 27 20
66 29 1
66 30 6
66 31 15
66 32 13
66 34 10
66 35 18
66 37 18
66 40 9
66 43 17
66 44 18
66 45 18
66 46 10
66 47 16
66 48 20
66 49 7
66 50 9
66 51 4
66 52 9
66 54 15
66 56 1
66 57 13
66 58 12
66 59 10
66 60 3
66 61 16
66 62 6
66 63 7
66 64 1
66 65 17
67 0 2
67 1 13
67 2 12
67 3 14
67 4 12
67 5 10
67 6 17
67 7 13
67 8 9
67 9 14
67 10 5
67 11 15
67 12 18
67 13 18
67 14 19
67 15 16
67 16 17
67 17 5
67 18 16
67 19 20
67 20 20
67 21 2
67 22 5
67 24 7
67 25 9
67 27 19
67 28 1
67 29 10
67 30 2
67 31 5
67 32 8
67 33 4
67 34 9
67 35 12
67 36 2
67 37 8
67 38 6
67 39 5
67 40 3
67 41 15
67 42 10
67 44 2
67 45 5
67 46 14
67 47 9
67 48 8
67 50 4
67 51 11
67 52 14
67 53 18
67 54 2
67 55 1
67 56 18
67 57 5
67 58 4
67 59 17
67 60 4
67 61 13
67 62 2
67 63 11
67 64 5
67 65 11
68 1 5
68 2 20
68 4 12
68 5 7
68 6 11
68 7 13
68 8 18
68 9 5
68 10 18
68 11 4
68 12 1
68 13 3
68 14 16
68 15 19
68 16 9
68 17 8
68 18 4
68 19 18
68 21 18
68 23 17
68 24 8
68 25 20
68 26 16
68 27 10
68 30 17
68 31 15
68 36 1
68 37 17
68 38 16
68 39 4
68 40 14
68 41 1
68 42 11
68 43 12
68 44 19
68 46 1
68 47 10
68 48 7
68 49 20
68 50 13
68 52 17
68 53 11
68 54 6
68 55 6
68 56 14
68 57 12
68 59 1
68 60 4
68 61 5
68 63 17
68 65 8
68 66 5
68 67 12
69 0 9
69 1 9
69 3 15
69 4 11
69 5 2
69 6 13
69 7 14
69 9 15
69 10 8
69 12 10
69 13 12
69 14 1
69 15 12
69 16 20
69 17 6
69 19 11
69 20 10
69 22 17
69 23 8
69 24 6
69 25 5
69 26 20
69 27 1
69 28 13
69 29 15
69 30 16
69 31 5
69 32 3
69 33 11
69 34 20
69 35 9
69 36 16
69 37 12
69 39 2
69 41 3
69 42 16
69 44 8
69 45 9
69 46 1
69 47 2
69 48 8
69 49 15
69 50 1
69 51 18
69 52 1
69 53 8
69 54 2
69 55 3
69 57 16
69 58 3
69 59 2
69 60 5
69 62 8
69 63 14
69 64 4
69 65 14
69 66 20
69 67 20
69 68 6
